language ESSENCE' 1.0
letting initGrid be [
    [1, 1, 1, 2, 3, 3],
[3, 2, 1, 1, 4, 4],
[4, 5, 1, 4, 1, 3],
[5, 3, 2, 3, 5, 3],
[4, 1, 2, 3, 3, 4]
    ]
letting goalBlocksRemaining be 5
letting noSteps be 6
